NAME : X-n101-k25
COMMENT : "Generated by Uchoa, Pecin, Pessoa, Poggi, Subramanian, and Vidal (2013)"
TYPE : CVRP
DIMENSION : 101
EDGE_WEIGHT_TYPE : EUC_2D
CAPACITY : 206
NODE_COORD_SECTION
1 365 689
2 146 180
3 792 5
4 658 510
5 461 270
6 299 531
7 812 228
8 643 90
9 615 630
10 258 42
11 616 299
12 475 957
13 425 473
14 406 64
15 656 369
16 202 467
17 318 21
18 579 587
19 458 354
20 575 871
21 47 512
22 568 742
23 128 436
24 546 806
25 197 696
26 615 300
27 852 563
28 772 803
29 678 342
30 916 176
31 390 949
32 113 782
33 226 736
34 119 923
35 584 572
36 134 554
37 912 173
38 827 233
39 851 677
40 598 322
41 627 472
42 94 442
43 688 274
44 977 176
45 597 461
46 931 23
47 170 640
48 941 601
49 873 487
50 797 95
51 451 816
52 866 970
53 833 912
54 106 913
55 260 107
56 332 45
57 685 613
58 728 372
59 487 497
60 702 440
61 717 412
62 635 794
63 927 972
64 635 356
65 634 540
66 658 261
67 303 168
68 707 410
69 254 135
70 346 29
71 75 79
72 893 987
73 729 372
74 29 910
75 356 39
76 274 943
77 322 96
78 664 396
79 704 236
80 415 837
81 576 587
82 750 977
83 726 363
84 861 948
85 302 129
86 415 989
87 199 135
88 801 405
89 679 426
90 994 804
91 311 116
92 739 898
93 268 97
94 176 991
95 688 588
96 107 836
97 708 522
98 679 864
99 985 877
100 954 950
101 615 750
PICKUP_AND_DELIVERY_SECTION
1 0 0 1000000000 0 0 0
2 0 0 1000000000 0 0 38
3 0 0 1000000000 0 0 51
4 0 0 1000000000 0 0 73
5 0 0 1000000000 0 0 70
6 0 0 1000000000 0 0 58
7 0 0 1000000000 0 0 54
8 0 0 1000000000 0 0 1
9 0 0 1000000000 0 0 98
10 0 0 1000000000 0 0 62
11 0 0 1000000000 0 98 0
12 0 0 1000000000 0 0 25
13 0 0 1000000000 0 0 86
14 0 0 1000000000 0 0 46
15 0 0 1000000000 0 0 27
16 0 0 1000000000 0 0 17
17 0 0 1000000000 0 0 97
18 0 0 1000000000 0 0 74
19 0 0 1000000000 0 0 81
20 0 0 1000000000 0 0 62
21 0 0 1000000000 0 59 0
22 0 0 1000000000 0 0 23
23 0 0 1000000000 0 0 62
24 0 0 1000000000 0 0 66
25 0 0 1000000000 0 0 35
26 0 0 1000000000 0 0 53
27 0 0 1000000000 0 0 18
28 0 0 1000000000 0 0 87
29 0 0 1000000000 0 0 32
30 0 0 1000000000 0 0 4
31 0 0 1000000000 0 61 0
32 0 0 1000000000 0 0 95
33 0 0 1000000000 0 0 23
34 0 0 1000000000 0 0 15
35 0 0 1000000000 0 0 5
36 0 0 1000000000 0 0 53
37 0 0 1000000000 0 0 97
38 0 0 1000000000 0 0 70
39 0 0 1000000000 0 0 32
40 0 0 1000000000 0 0 27
41 0 0 1000000000 0 42 0
42 0 0 1000000000 0 0 67
43 0 0 1000000000 0 0 76
44 0 0 1000000000 0 0 15
45 0 0 1000000000 0 0 39
46 0 0 1000000000 0 0 14
47 0 0 1000000000 0 0 43
48 0 0 1000000000 0 0 11
49 0 0 1000000000 0 0 93
50 0 0 1000000000 0 0 53
51 0 0 1000000000 0 44 0
52 0 0 1000000000 0 0 80
53 0 0 1000000000 0 0 87
54 0 0 1000000000 0 0 97
55 0 0 1000000000 0 0 67
56 0 0 1000000000 0 0 72
57 0 0 1000000000 0 0 50
58 0 0 1000000000 0 0 8
59 0 0 1000000000 0 0 58
60 0 0 1000000000 0 0 55
61 0 0 1000000000 0 67 0
62 0 0 1000000000 0 0 89
63 0 0 1000000000 0 0 38
64 0 0 1000000000 0 0 65
65 0 0 1000000000 0 0 3
66 0 0 1000000000 0 0 5
67 0 0 1000000000 0 0 46
68 0 0 1000000000 0 0 100
69 0 0 1000000000 0 0 52
70 0 0 1000000000 0 0 28
71 0 0 1000000000 0 96 0
72 0 0 1000000000 0 0 18
73 0 0 1000000000 0 0 16
74 0 0 1000000000 0 0 7
75 0 0 1000000000 0 0 73
76 0 0 1000000000 0 0 76
77 0 0 1000000000 0 0 6
78 0 0 1000000000 0 0 64
79 0 0 1000000000 0 0 39
80 0 0 1000000000 0 0 86
81 0 0 1000000000 0 70 0
82 0 0 1000000000 0 0 14
83 0 0 1000000000 0 0 83
84 0 0 1000000000 0 0 96
85 0 0 1000000000 0 0 43
86 0 0 1000000000 0 0 12
87 0 0 1000000000 0 0 73
88 0 0 1000000000 0 0 2
89 0 0 1000000000 0 0 21
90 0 0 1000000000 0 0 18
91 0 0 1000000000 0 55 0
92 0 0 1000000000 0 0 75
93 0 0 1000000000 0 0 68
94 0 0 1000000000 0 0 100
95 0 0 1000000000 0 0 61
96 0 0 1000000000 0 0 24
97 0 0 1000000000 0 0 40
98 0 0 1000000000 0 0 48
99 0 0 1000000000 0 0 51
100 0 0 1000000000 0 0 78
101 0 0 1000000000 0 35 0
